67	44	47	75	25	76	77	42	22	86
36	97	64	95	92	45	87	33	96	75
50	93	3	38	38	15	42	76	17	2
36	95	40	19	3	97	81	4	8	100
98	4	49	37	39	15	98	68	10	14
58	47	17	40	22	11	73	24	2	18
92	70	56	99	71	12	29	49	20	91
93	60	52	28	3	94	54	35	12	26
39	14	15	41	65	44	93	58	79	52
16	77	36	26	70	100	30	13	42	74
